db/data/64221790228752616523436255812393813547.z3.out
-------------------
2500.147183616
